
Gurobi 11.0.3 (linux64) logging started Mon Aug 25 12:53:39 2025

Set parameter LogFile to value "/home/yihong/Coding/OR_SUC/SUC_epstheta_results_bigM100000_thread4/case24_ieee_rts_theta0.1_epsilon0.2_gurobi_seed80000_num_gen100_N_WDR50_load_scaling_factor1_ori_eps_T1quadra_cost_bc1.03.txt"
Set parameter TimeLimit to value 3600
Gurobi Optimizer version 11.0.3 build v11.0.3rc0 (linux64 - "Ubuntu 20.04.6 LTS")

CPU model: AMD EPYC 7532 32-Core Processor, instruction set [SSE2|AVX|AVX2]
Thread count: 64 physical cores, 128 logical processors, using up to 4 threads

Academic license 2399124 - for non-commercial use only - registered to yi___@ed.ac.uk
Optimize a model with 2261 rows, 1291 columns and 95366 nonzeros
Model fingerprint: 0x67b7c3cb
Model has 100 quadratic constraints
Variable types: 1191 continuous, 100 integer (100 binary)
Coefficient statistics:
  Matrix range     [3e-04, 6e+01]
  QMatrix range    [2e-03, 8e-03]
  QLMatrix range   [6e-02, 6e+01]
  Objective range  [1e+00, 1e+00]
  Bounds range     [1e+00, 1e+00]
  RHS range        [1e+00, 9e+03]
Presolve removed 1962 rows and 725 columns
Presolve time: 0.02s
Presolved: 299 rows, 566 columns, 2391 nonzeros
Presolved model has 100 quadratic constraint(s)
Variable types: 466 continuous, 100 integer (100 binary)

Root relaxation: objective 8.375856e+02, 204 iterations, 0.00 seconds (0.00 work units)

    Nodes    |    Current Node    |     Objective Bounds      |     Work
 Expl Unexpl |  Obj  Depth IntInf | Incumbent    BestBd   Gap | It/Node Time

     0     0  837.58560    0    1          -  837.58560      -     -    0s
     0     0 12967.6063    0   36          - 12967.6063      -     -    0s
     0     0 27758.8164    0   11          - 27758.8164      -     -    0s
     0     0 27760.1112    0   11          - 27760.1112      -     -    0s
     0     0 27769.2665    0    1          - 27769.2665      -     -    0s
     0     0 27769.3144    0    1          - 27769.3144      -     -    0s
     0     0 27769.4165    0    1          - 27769.4165      -     -    0s
     0     0 27769.4165    0    1          - 27769.4165      -     -    0s
H    0     0                    27792.471591 27769.4165  0.08%     -    0s

Cutting planes:
  Gomory: 5
  Implied bound: 20
  MIR: 6
  Flow cover: 50

Explored 1 nodes (568 simplex iterations) in 0.09 seconds (0.07 work units)
Thread count was 4 (of 128 available processors)

Solution count 1: 27792.5 

Optimal solution found (tolerance 1.00e-03)
Best objective 2.779247159112e+04, best bound 2.776941654355e+04, gap 0.0830%

Gurobi 11.0.3 (linux64) logging started Mon Aug 25 12:53:40 2025

Set parameter LogFile to value "/home/yihong/Coding/OR_SUC/SUC_epstheta_results_bigM100000_thread4/case24_ieee_rts_theta0.1_epsilon0.2_gurobi_seed80000_num_gen100_N_WDR50_load_scaling_factor1_ori_eps_T1quadra_cost_bc1.03.txt"
Set parameter TimeLimit to value 3600
Gurobi Optimizer version 11.0.3 build v11.0.3rc0 (linux64 - "Ubuntu 20.04.6 LTS")

CPU model: AMD EPYC 7532 32-Core Processor, instruction set [SSE2|AVX|AVX2]
Thread count: 64 physical cores, 128 logical processors, using up to 4 threads

Academic license 2399124 - for non-commercial use only - registered to yi___@ed.ac.uk
Optimize a model with 5303 rows, 1292 columns and 424551 nonzeros
Model fingerprint: 0x0326775f
Model has 101 quadratic constraints
Variable types: 1192 continuous, 100 integer (100 binary)
Coefficient statistics:
  Matrix range     [3e-04, 6e+01]
  QMatrix range    [2e-03, 5e+01]
  QLMatrix range   [6e-02, 6e+01]
  Objective range  [1e+00, 1e+00]
  Bounds range     [2e-01, 1e+00]
  RHS range        [2e-01, 3e+04]
  QRHS range       [5e+00, 5e+00]
Presolve removed 1580 rows and 709 columns
Presolve time: 0.17s
Presolved: 3825 rows, 684 columns, 85338 nonzeros
Presolved model has 100 quadratic constraint(s)
Presolved model has 1 bilinear constraint(s)
Warning: Model contains variables with very large bounds participating
         in product terms.
         Presolve was not able to compute smaller bounds for these variables.
         Consider bounding these variables or reformulating the model.


Solving non-convex MIQCP

Variable types: 584 continuous, 100 integer (100 binary)

Root relaxation: objective 0.000000e+00, 248 iterations, 0.03 seconds (0.07 work units)

    Nodes    |    Current Node    |     Objective Bounds      |     Work
 Expl Unexpl |  Obj  Depth IntInf | Incumbent    BestBd   Gap | It/Node Time

     0     0    0.00000    0    2          -    0.00000      -     -    0s
     0     0    0.00000    0    2          -    0.00000      -     -    0s
     0     0    0.00000    0    1          -    0.00000      -     -    0s
H    0     0                       0.0927660    0.00000   100%     -    5s
H    0     0                       0.0798044    0.00000   100%     -    5s
H    0     0                       0.0275640    0.00000   100%     -    5s
H    0     0                       0.0275632    0.00000   100%     -    5s
H    0     0                       0.0275630    0.00000   100%     -    5s
H    0     0                       0.0249592    0.00000   100%     -    5s
H    0     0                       0.0249548    0.00000   100%     -    5s
H    0     0                       0.0248090    0.00000   100%     -    5s
H    0     0                       0.0248088    0.00000   100%     -    5s
H    0     0                       0.0247288    0.00000   100%     -    5s
H    0     0                       0.0247287    0.00000   100%     -    5s
H    0     0                       0.0247280    0.00000   100%     -    5s
H    0     0                       0.0247280    0.00000   100%     -    5s
H    0     0                       0.0238979    0.00000   100%     -    5s
H    0     0                       0.0238969    0.00000   100%     -    5s

Cutting planes:
  Implied bound: 2
  Flow cover: 1

Explored 1 nodes (382 simplex iterations) in 5.93 seconds (5.82 work units)
Thread count was 4 (of 128 available processors)

Solution count 10: 0.0238969 0.0238979 0.024728 ... 0.0249592

Optimal solution found (tolerance 1.00e-03)
Best objective 2.389689620014e-02, best bound 2.389689620014e-02, gap 0.0000%
